Set parameter TSPort to value 51199
Set parameter TokenServer to value "open-license1.lanl.gov"
Set parameter TimeLimit to value 256
Set parameter Threads to value 1
Gurobi Optimizer version 10.0.3 build v10.0.3rc0 (linux64)

CPU model: Intel(R) Xeon(R) CPU E5-2695 v4 @ 2.10GHz, instruction set [SSE2|AVX|AVX2]
Thread count: 36 physical cores, 72 logical processors, using up to 1 threads

Optimize a model with 0 rows, 598 columns and 0 nonzeros
Model fingerprint: 0x9381c687
Model has 2566 quadratic objective terms
Variable types: 0 continuous, 598 integer (598 binary)
Coefficient statistics:
  Matrix range     [0e+00, 0e+00]
  Objective range  [2e+00, 3e+01]
  QObjective range [8e+00, 8e+00]
  Bounds range     [1e+00, 1e+00]
  RHS range        [0e+00, 0e+00]
Found heuristic solution: objective 0.0000000
Found heuristic solution: objective -1020.000000
Found heuristic solution: objective -3648.000000
Found heuristic solution: objective -3670.000000
Presolve removed 0 rows and 1 columns
Presolve time: 0.21s
Presolved: 2565 rows, 3162 columns, 7695 nonzeros
Variable types: 0 continuous, 3162 integer (3162 binary)

Root relaxation: objective -4.924000e+03, 717 iterations, 0.01 seconds (0.01 work units)

    Nodes    |    Current Node    |     Objective Bounds      |     Work
 Expl Unexpl |  Obj  Depth IntInf | Incumbent    BestBd   Gap | It/Node Time

     0     0 -4924.0000    0  597 -3670.0000 -4924.0000  34.2%     -    0s
     0     0 -4479.0000    0  835 -3670.0000 -4479.0000  22.0%     -    0s
     0     0 -4479.0000    0  835 -3670.0000 -4479.0000  22.0%     -    0s
     0     0 -4394.3333    0  925 -3670.0000 -4394.3333  19.7%     -    0s
     0     0 -4394.3333    0  911 -3670.0000 -4394.3333  19.7%     -    1s
     0     2 -4394.3333    0  901 -3670.0000 -4394.3333  19.7%     -    1s
   508   475 -4350.3333    4  936 -3670.0000 -4372.3333  19.1%  92.8    5s
   528   488 -3704.0000  110 1660 -3670.0000 -4047.5759  10.3%  89.3   10s
   537   494 -3980.8311   55 2193 -3670.0000 -3980.8311  8.47%  87.8   16s
   543   498 -3889.0000   70 2387 -3670.0000 -3951.8933  7.68%  86.9   21s
   550   503 -3839.0000   81 2488 -3670.0000 -3945.9163  7.52%  85.8   25s
   552   504 -3682.6667  125 2624 -3670.0000 -3923.5088  6.91%  85.4   30s
   557   508 -3910.7984   31 2634 -3670.0000 -3910.7984  6.56%  84.7   35s
   564   512 -3783.0000   91 2691 -3670.0000 -3897.4970  6.20%  83.6   42s
   570   516 -3799.0000   89 2744 -3670.0000 -3891.1071  6.02%  82.7   46s
   576   520 -3886.0225   15 2741 -3670.0000 -3886.0225  5.89%  81.9   51s
   583   525 -3760.0000   97 2791 -3670.0000 -3880.6475  5.74%  80.9   55s
   593   532 -3757.0000   98 2793 -3670.0000 -3876.5644  5.63%  79.5   60s
   603   538 -3722.0000  105 2823 -3670.0000 -3872.5366  5.52%  78.2   65s
   614   546 -3765.0000   99 2800 -3670.0000 -3864.8436  5.31%  76.8   71s
   624   552 -3860.8117   74 2820 -3670.0000 -3860.8117  5.20%  75.6   75s
   636   560 -3857.4465   55 2848 -3670.0000 -3857.4465  5.11%  74.2   80s
   651   570 -3853.5226   13 2876 -3670.0000 -3853.5226  5.00%  72.4   85s
   669   582 -3849.8417   31 2877 -3670.0000 -3849.8417  4.90%  70.5   90s
   695   601 -3786.0000   93 1065 -3670.0000 -3848.0122  4.85%   352   95s
   696   602 -3848.0122   10 2510 -3670.0000 -3848.0122  4.85%   351  102s
   697   602 -3848.0122   49 2755 -3670.0000 -3848.0122  4.85%   351  108s
   698   603 -3848.0122   27 2807 -3670.0000 -3848.0122  4.85%   350  111s
   704   607 -3848.0122   13 2905 -3670.0000 -3848.0122  4.85%   347  115s
   715   614 -3845.4551   26 2899 -3670.0000 -3845.4551  4.78%   342  120s
   727   622 -3842.8719   62 2912 -3670.0000 -3842.8719  4.71%   336  125s
   738   630 -3841.2485    7 2923 -3670.0000 -3841.2485  4.67%   331  130s
   752   639 -3682.6667  125 2939 -3670.0000 -3839.4258  4.62%   325  135s
   766   648 -3837.6103   63 2958 -3670.0000 -3837.6103  4.57%   319  140s
   783   660 -3760.0000   97 2972 -3670.0000 -3835.9290  4.52%   312  145s
   800   671 -3833.8279   64 2965 -3670.0000 -3833.8279  4.46%   306  150s
   816   682 -3832.6149    9 2969 -3670.0000 -3832.6149  4.43%   300  155s
   834   694 -3737.0000  108 2981 -3670.0000 -3831.6000  4.40%   293  160s
   851   705 -3830.1626   13 2971 -3670.0000 -3830.1626  4.36%   287  165s
   862   712 -3829.8433   42 2969 -3670.0000 -3829.8433  4.36%   284  175s
   865   716 -3825.1119   26 2874 -3670.0000 -3827.8187  4.30%   443  181s
   868   718 -3820.9953   27 2846 -3670.0000 -3827.8187  4.30%   454  186s
   870   720 -3820.3699   28 2832 -3670.0000 -3827.8187  4.30%   461  190s
   875   723 -3814.2789   31 2756 -3670.0000 -3827.8187  4.30%   472  195s
   880   726 -3809.1612   33 2723 -3670.0000 -3827.8187  4.30%   484  200s
   886   730 -3802.6681   36 2650 -3670.0000 -3827.8187  4.30%   496  205s
   893   735 -3797.0573   40 2575 -3670.0000 -3827.8187  4.30%   506  210s
   899   739 -3789.8565   43 2539 -3670.0000 -3827.8187  4.30%   518  215s
   904   742 -3783.2971   45 2518 -3670.0000 -3827.8187  4.30%   528  220s
   909   746 -3780.2868   48 2468 -3670.0000 -3827.8187  4.30%   534  232s
   913   748 -3778.3041   50 2440 -3670.0000 -3827.8187  4.30%   540  235s
   921   754 -3772.4663   54 2404 -3670.0000 -3827.8187  4.30%   552  240s
   929   759 -3765.2268   58 2351 -3670.0000 -3827.8187  4.30%   561  245s
   939   766 -3757.7522   63 2271 -3670.0000 -3827.8187  4.30%   572  250s
   953   775 -3750.3642   70 2190 -3670.0000 -3827.8187  4.30%   582  255s

Cutting planes:
  Gomory: 22
  MIR: 112
  Flow cover: 1161
  Zero half: 400
  RLT: 93
  BQP: 148

Explored 955 nodes (561425 simplex iterations) in 256.00 seconds (294.18 work units)
Thread count was 1 (of 72 available processors)

Solution count 4: -3670 -3648 -1020 0 

Time limit reached
Best objective -3.670000000000e+03, best bound -3.826000000000e+03, gap 4.2507%

User-callback calls 18381, time in user-callback 0.08 sec

BQP_SOLUTION, 598, 2566, -1312.000000, 256.003738, -1, 1, -1, 1, -1, 1, 1, -1, 1, -1, -1, 1, -1, -1, 1, -1, 1, 1, -1, 1, -1, -1, -1, -1, 1, -1, 1, -1, 1, -1, -1, 1, -1, 1, -1, 1, 1, -1, -1, 1, -1, -1, -1, -1, -1, -1, -1, -1, -1, 1, -1, -1, -1, -1, 1, -1, -1, -1, -1, -1, -1, 1, -1, -1, 1, -1, 1, -1, -1, 1, -1, -1, -1, -1, 1, 1, -1, -1, -1, 1, -1, -1, -1, -1, -1, 1, -1, 1, -1, -1, -1, -1, -1, 1, -1, 1, -1, -1, -1, 1, 1, -1, -1, 1, -1, 1, -1, -1, -1, -1, 1, -1, -1, 1, -1, 1, 1, -1, -1, -1, 1, -1, 1, 1, -1, 1, -1, -1, 1, -1, 1, -1, 1, 1, -1, 1, -1, -1, 1, -1, 1, 1, -1, 1, -1, 1, -1, -1, 1, -1, 1, 1, 1, 1, -1, 1, 1, -1, 1, 1, -1, 1, -1, 1, -1, 1, -1, -1, 1, 1, 1, 1, -1, 1, -1, 1, -1, 1, 1, 1, -1, -1, 1, 1, 1, 1, -1, 1, 1, -1, 1, -1, 1, 1, -1, 1, -1, 1, 1, -1, 1, -1, 1, 1, -1, 1, 1, -1, 1, -1, 1, 1, 1, 1, 1, -1, 1, 1, 1, -1, 1, 1, 1, 1, -1, -1, 1, -1, 1, -1, -1, 1, -1, 1, 1, -1, 1, -1, -1, -1, -1, -1, 1, 1, 1, -1, -1, 1, 1, -1, -1, -1, 1, 1, -1, -1, -1, -1, 1, 1, -1, -1, -1, 1, 1, -1, -1, -1, 1, 1, -1, -1, -1, 1, -1, -1, -1, -1, 1, 1, -1, 1, -1, 1, 1, -1, -1, -1, 1, 1, -1, 1, -1, 1, 1, -1, -1, 1, -1, 1, -1, -1, 1, -1, 1, 1, 1, -1, 1, 1, -1, 1, -1, 1, 1, -1, 1, 1, -1, 1, -1, -1, 1, 1, -1, -1, 1, -1, 1, -1, -1, 1, 1, 1, 1, -1, 1, 1, 1, -1, -1, -1, -1, 1, 1, -1, 1, 1, -1, 1, 1, -1, 1, 1, 1, -1, -1, 1, 1, -1, 1, 1, 1, 1, 1, -1, 1, 1, 1, 1, -1, 1, 1, 1, 1, -1, 1, 1, -1, 1, -1, -1, 1, -1, 1, 1, -1, 1, -1, 1, 1, -1, 1, 1, 1, 1, -1, 1, -1, 1, 1, -1, 1, -1, 1, 1, -1, 1, -1, 1, 1, 1, 1, -1, 1, 1, -1, 1, 1, 1, -1, -1, 1, 1, 1, -1, 1, -1, 1, 1, 1, -1, 1, 1, 1, 1, 1, 1, 1, 1, 1, -1, 1, 1, 1, 1, 1, 1, 1, 1, 1, -1, 1, 1, 1, 1, 1, 1, 1, -1, -1, -1, 1, 1, 1, 1, 1, 1, -1, -1, 1, -1, 1, 1, 1, -1, 1, 1, 1, 1, -1, 1, 1, 1, -1, 1, 1, 1, 1, -1, 1, -1, 1, 1, -1, -1, -1, 1, 1, 1, -1, -1, 1, 1, -1, -1, 1, 1, 1, 1, -1, -1, -1, -1, 1, -1, -1, 1, 1, 1, -1, -1, 1, -1, 1, -1, -1, 1, -1, 1, 1, -1, -1, 1, 1, -1, 1, -1, 1, 1, -1, -1, -1, 1, -1, -1, -1, 1, 1, 1, -1, -1, -1, -1, 1, -1, -1, 1, -1, 1, 1, -1, -1, -1, 1, -1, -1, -1, -1, 1, -1, -1, -1, 1, -1, 1, -1, -1, 1, -1, 1, -1, -1, -1, 1, 1, -1, -1, 1, -1, 1, -1, 1, 1, -1, 1, 1, -1
BQP_DATA, 598, 2566, -1312.000000, -1468.000000, -3670.000000, -3826.000000, 256.003738, 1695, 955
